\* Problem: wagons *\

Minimize
 obj: + Cm

Subject To
 caisse1: + x2 + x1 + x0 = 1
 caisse2: + x5 + x4 + x3 = 1
 caisse3: + x8 + x7 + x6 = 1
 caisse4: + x11 + x10 + x9 = 1
 caisse5: + x14 + x13 + x12 = 1
 caisse6: + x17 + x16 + x15 = 1
 caisse7: + x20 + x19 + x18 = 1
 caisse8: + x23 + x22 + x21 = 1
 caisse9: + x26 + x25 + x24 = 1
 caisse10: + x29 + x28 + x27 = 1
 caisse11: + x32 + x31 + x30 = 1
 caisse12: + x35 + x34 + x33 = 1
 caisse13: + x38 + x37 + x36 = 1
 caisse14: + x41 + x40 + x39 = 1
 caisse15: + x44 + x43 + x42 = 1
 caisse16: + x47 + x46 + x45 = 1
 chaMax17: - Cm + 25 x45 + 25 x42 + 9 x39 + 33 x36 + 13 x33 + 14 x30
 + 31 x27 + 25 x24 + 21 x21 + 13 x18 + 5 x15 + 16 x12 + 17 x9 + 8 x6
 + 6 x3 + 34 x0 <= 0
 chaMax18: - Cm + 25 x46 + 25 x43 + 9 x40 + 33 x37 + 13 x34 + 14 x31
 + 31 x28 + 25 x25 + 21 x22 + 13 x19 + 5 x16 + 16 x13 + 17 x10 + 8 x7
 + 6 x4 + 34 x1 <= 0
 chaMax19: - Cm + 25 x47 + 25 x44 + 9 x41 + 33 x38 + 13 x35 + 14 x32
 + 31 x29 + 25 x26 + 21 x23 + 13 x20 + 5 x17 + 16 x14 + 17 x11 + 8 x8
 + 6 x5 + 34 x2 <= 0

Bounds
 0 <= x0 <= 1
 0 <= x1 <= 1
 0 <= x2 <= 1
 0 <= x3 <= 1
 0 <= x4 <= 1
 0 <= x5 <= 1
 0 <= x6 <= 1
 0 <= x7 <= 1
 0 <= x8 <= 1
 0 <= x9 <= 1
 0 <= x10 <= 1
 0 <= x11 <= 1
 0 <= x12 <= 1
 0 <= x13 <= 1
 0 <= x14 <= 1
 0 <= x15 <= 1
 0 <= x16 <= 1
 0 <= x17 <= 1
 0 <= x18 <= 1
 0 <= x19 <= 1
 0 <= x20 <= 1
 0 <= x21 <= 1
 0 <= x22 <= 1
 0 <= x23 <= 1
 0 <= x24 <= 1
 0 <= x25 <= 1
 0 <= x26 <= 1
 0 <= x27 <= 1
 0 <= x28 <= 1
 0 <= x29 <= 1
 0 <= x30 <= 1
 0 <= x31 <= 1
 0 <= x32 <= 1
 0 <= x33 <= 1
 0 <= x34 <= 1
 0 <= x35 <= 1
 0 <= x36 <= 1
 0 <= x37 <= 1
 0 <= x38 <= 1
 0 <= x39 <= 1
 0 <= x40 <= 1
 0 <= x41 <= 1
 0 <= x42 <= 1
 0 <= x43 <= 1
 0 <= x44 <= 1
 0 <= x45 <= 1
 0 <= x46 <= 1
 0 <= x47 <= 1

Generals
 x0
 x1
 x2
 x3
 x4
 x5
 x6
 x7
 x8
 x9
 x10
 x11
 x12
 x13
 x14
 x15
 x16
 x17
 x18
 x19
 x20
 x21
 x22
 x23
 x24
 x25
 x26
 x27
 x28
 x29
 x30
 x31
 x32
 x33
 x34
 x35
 x36
 x37
 x38
 x39
 x40
 x41
 x42
 x43
 x44
 x45
 x46
 x47

End
